WARNING: for repeatability, setting FPU to use double precision
============================[ Problem Statistics ]=============================
|                                                                             |
|  Number of variables:           100                                         |
|  Number of clauses:             449                                         |
|  Parse time:                   0.00 s                                       |
|  Eliminated clauses:           0.00 Mb                                      |
|  Simplification time:          0.00 s                                       |
|                                                                             |
============================[ Search Statistics ]==============================
| Conflicts |          ORIGINAL         |          LEARNT          | Progress |
|           |    Vars  Clauses Literals |    Limit  Clauses Lit/Cl |          |
===============================================================================
|       100 |      99      448     1353 |      164      100      8 |  0.010 % |
|       250 |      99      448     1353 |      180      165      6 |  0.041 % |
===============================================================================
restarts              : 4
conflicts             : 423            (136805 /sec)
decisions             : 536            (0.00 % random) (173351 /sec)
propagations          : 10077          (3259056 /sec)
conflict literals     : 2548           (23.21 % deleted)
Memory used           : 13.00 MB
CPU time              : 0.003092 s

SATISFIABLE
